results/res_prop_muc/res_Cimatti_mathsat_cores/QF_UF/NEQ046_size6.smt.smt2.out

real	0m54.928s
user	0m51.789s
sys	0m3.021s
