results/res_prop_muc/res_Cimatti_mathsat_cores/QF_UF/NEQ046_size6.smt.smt2.res
unsat
( _c0
  _c19990
  _c20015
  _c20016
  _c20017
  _c20018
  _c20040
  _c20042
  _c20043
  _c20044
  _c20046
  _c20065
  _c20068
  _c20069
  _c20071
  _c20090
  _c20094
  _c20096
  _c20115
  _c20116
  _c217
  _c218
  _c21809
  _c21810
  _c21814
  _c219
  _c220
  _c221
  _c222
  _c224
  _c23632
  _c23637
  _c23642
  _c23647
  _c23652
  _c27656
  _c27657
  _c27658
  _c27659
  _c27660
  _c27661
  _c27663
  _c28108
  _c28109
  _c28110
  _c28111
  _c28112
  _c28113
  _c28114
  _c28115
  _c28116
  _c28117
  _c28118
  _c28119
  _c28120
  _c28121 )
